55
120
84	5
82	1
81	2
80	3
78	1
77	1
75	2
74	1
73	2
72	1
71	1
70	1
69	2
67	1
66	3
62	3
61	2
60	1
59	2
58	2
57	1
56	1
55	2
54	2
52	2
51	1
50	2
48	1
47	1
46	1
45	3
44	2
43	1
42	1
41	2
39	4
37	2
36	1
35	2
33	1
32	1
30	1
28	1
27	3
26	1
25	4
23	3
22	1
21	5
20	1
19	2
17	1
16	3
14	2
13	1
